ilp_joint/output/grafting_ilp.lp
Maximize
  0.00157810444485448 Z_358_0_0 + 0.0023527610140392 Z_358_0_1
   + 0.740383416468294 Z_358_0_2 + 0.00119427442431159 Z_358_0_3
   + 0.1544914436485008 Z_358_0_4 + 0.00419348414031912 Z_142_0_0
   + 0.00122919916059191 Z_142_0_1 + 0.6735545640787133 Z_142_0_2
   + 0.00467627854565865 Z_142_0_3 + 0.2163464740747171 Z_142_0_4
   + 0.00513830158551949 Z_147_0_0 + 0.00428796675340432 Z_147_0_1
   + 0.7913632605106335 Z_147_0_2 + 0.0120469631661913 Z_147_0_3
   + 0.0871635079842514 Z_147_0_4 + [ 6.67695e-07 Z_142_0_0 * Z_147_0_0
   + 6.67695e-07 Z_142_0_1 * Z_147_0_1 + 6.67695e-07 Z_142_0_2 * Z_147_0_2
   + 6.67695e-07 Z_142_0_3 * Z_147_0_3 + 6.67695e-07 Z_142_0_4 * Z_147_0_4
   ] / 2 
Subject To
 constraint1_3580: Z_358_0_0 + Z_358_0_1 + Z_358_0_2 + Z_358_0_3
   + Z_358_0_4 <= 1
 constraint1_1420: Z_142_0_0 + Z_142_0_1 + Z_142_0_2 + Z_142_0_3
   + Z_142_0_4 <= 1
 constraint1_1470: Z_147_0_0 + Z_147_0_1 + Z_147_0_2 + Z_147_0_3
   + Z_147_0_4 <= 1
 constraint2_3580: Z_358_0_0 <= 1
 constraint2_3581: Z_358_0_1 <= 1
 constraint2_3582: Z_358_0_2 <= 1
 constraint2_3583: Z_358_0_3 <= 1
 constraint2_1420: Z_142_0_0 <= 1
 constraint2_1421: Z_142_0_1 <= 1
 constraint2_1422: Z_142_0_2 <= 1
 constraint2_1423: Z_142_0_3 <= 1
 constraint2_1470: Z_147_0_0 <= 1
 constraint2_1471: Z_147_0_1 <= 1
 constraint2_1472: Z_147_0_2 <= 1
 constraint2_1473: Z_147_0_3 <= 1
Bounds
Binaries
 Z_358_0_0 Z_358_0_1 Z_358_0_2 Z_358_0_3 Z_358_0_4 Z_142_0_0 Z_142_0_1
 Z_142_0_2 Z_142_0_3 Z_142_0_4 Z_147_0_0 Z_147_0_1 Z_147_0_2 Z_147_0_3
 Z_147_0_4
End
