ilp_joint/output/grafting_ilp.mps
NAME grafting_srl_ilp
* Max problem is converted into Min one
ROWS
 N  OBJ
 L  constraint1_1890
 L  constraint1_3580
 L  constraint1_1420
 L  constraint1_4380
 L  constraint1_310
 L  constraint1_6640
 L  constraint1_3130
 L  constraint1_1470
 L  constraint2_1890
 L  constraint2_1891
 L  constraint2_1892
 L  constraint2_1893
 L  constraint2_3580
 L  constraint2_3581
 L  constraint2_3582
 L  constraint2_3583
 L  constraint2_1420
 L  constraint2_1421
 L  constraint2_1422
 L  constraint2_1423
 L  constraint2_4380
 L  constraint2_4381
 L  constraint2_4382
 L  constraint2_4383
 L  constraint2_310
 L  constraint2_311
 L  constraint2_312
 L  constraint2_313
 L  constraint2_6640
 L  constraint2_6641
 L  constraint2_6642
 L  constraint2_6643
 L  constraint2_3130
 L  constraint2_3131
 L  constraint2_3132
 L  constraint2_3133
 L  constraint2_1470
 L  constraint2_1471
 L  constraint2_1472
 L  constraint2_1473
COLUMNS
    MARKER    'MARKER'                 'INTORG'
    Z_189_0_0  OBJ       -4.4846607457809887e-03
    Z_189_0_0  constraint1_1890  1
    Z_189_0_0  constraint2_1890  1
    Z_189_0_1  OBJ       -5.4473572232083267e-03
    Z_189_0_1  constraint1_1890  1
    Z_189_0_1  constraint2_1891  1
    Z_189_0_2  OBJ       -7.9496903079928616e-01
    Z_189_0_2  constraint1_1890  1
    Z_189_0_2  constraint2_1892  1
    Z_189_0_3  OBJ       -8.2637449099279576e-03
    Z_189_0_3  constraint1_1890  1
    Z_189_0_3  constraint2_1893  1
    Z_358_0_0  OBJ       -7.5395052087997242e-03
    Z_358_0_0  constraint1_3580  1
    Z_358_0_0  constraint2_3580  1
    Z_358_0_1  OBJ       -1.4003044135585396e-02
    Z_358_0_1  constraint1_3580  1
    Z_358_0_1  constraint2_3581  1
    Z_358_0_2  OBJ       -7.1357258012985081e-01
    Z_358_0_2  constraint1_3580  1
    Z_358_0_2  constraint2_3582  1
    Z_358_0_3  OBJ       -7.9138043472939453e-03
    Z_358_0_3  constraint1_3580  1
    Z_358_0_3  constraint2_3583  1
    Z_142_0_0  OBJ       -1.4789846419671416e-02
    Z_142_0_0  constraint1_1420  1
    Z_142_0_0  constraint2_1420  1
    Z_142_0_1  OBJ       -6.1361488570502165e-03
    Z_142_0_1  constraint1_1420  1
    Z_142_0_1  constraint2_1421  1
    Z_142_0_2  OBJ       -6.7189158662609394e-01
    Z_142_0_2  constraint1_1420  1
    Z_142_0_2  constraint2_1422  1
    Z_142_0_3  OBJ       -2.3772211728575798e-02
    Z_142_0_3  constraint1_1420  1
    Z_142_0_3  constraint2_1423  1
    Z_438_0_0  OBJ       -3.8236401351602447e-03
    Z_438_0_0  constraint1_4380  1
    Z_438_0_0  constraint2_4380  1
    Z_438_0_1  OBJ       -8.4135613727551409e-03
    Z_438_0_1  constraint1_4380  1
    Z_438_0_1  constraint2_4381  1
    Z_438_0_2  OBJ       -7.6230521339885238e-01
    Z_438_0_2  constraint1_4380  1
    Z_438_0_2  constraint2_4382  1
    Z_438_0_3  OBJ       -2.9584140589974755e-02
    Z_438_0_3  constraint1_4380  1
    Z_438_0_3  constraint2_4383  1
    Z_31_0_0  OBJ       -8.1389311708082170e-04
    Z_31_0_0  constraint1_310  1
    Z_31_0_0  constraint2_310  1
    Z_31_0_1  OBJ       -4.8002467850787732e-02
    Z_31_0_1  constraint1_310  1
    Z_31_0_1  constraint2_311  1
    Z_31_0_2  OBJ       -6.7028599642784836e-01
    Z_31_0_2  constraint1_310  1
    Z_31_0_2  constraint2_312  1
    Z_31_0_3  OBJ       -7.7672927446304782e-03
    Z_31_0_3  constraint1_310  1
    Z_31_0_3  constraint2_313  1
    Z_664_0_0  OBJ       -1.5086026826755528e-02
    Z_664_0_0  constraint1_6640  1
    Z_664_0_0  constraint2_6640  1
    Z_664_0_1  OBJ       -6.2214540849377387e-03
    Z_664_0_1  constraint1_6640  1
    Z_664_0_1  constraint2_6641  1
    Z_664_0_2  OBJ       -6.7425911373870762e-01
    Z_664_0_2  constraint1_6640  1
    Z_664_0_2  constraint2_6642  1
    Z_664_0_3  OBJ       -2.2154531985980892e-02
    Z_664_0_3  constraint1_6640  1
    Z_664_0_3  constraint2_6643  1
    Z_313_0_0  OBJ       -2.2928436366289827e-03
    Z_313_0_0  constraint1_3130  1
    Z_313_0_0  constraint2_3130  1
    Z_313_0_1  OBJ       -6.6609602693377123e-03
    Z_313_0_1  constraint1_3130  1
    Z_313_0_1  constraint2_3131  1
    Z_313_0_2  OBJ       -7.9335931246533464e-01
    Z_313_0_2  constraint1_3130  1
    Z_313_0_2  constraint2_3132  1
    Z_313_0_3  OBJ       -3.2375497144397367e-03
    Z_313_0_3  constraint1_3130  1
    Z_313_0_3  constraint2_3133  1
    Z_147_0_0  OBJ       -1.6346044417303907e-02
    Z_147_0_0  constraint1_1470  1
    Z_147_0_0  constraint2_1470  1
    Z_147_0_1  OBJ       -7.8786054319237471e-03
    Z_147_0_1  constraint1_1470  1
    Z_147_0_1  constraint2_1471  1
    Z_147_0_2  OBJ       -7.9464799480637527e-01
    Z_147_0_2  constraint1_1470  1
    Z_147_0_2  constraint2_1472  1
    Z_147_0_3  OBJ       -3.7267694604409471e-02
    Z_147_0_3  constraint1_1470  1
    Z_147_0_3  constraint2_1473  1
    MARKER    'MARKER'                 'INTEND'
RHS
    RHS1      constraint1_1890  1
    RHS1      constraint1_3580  1
    RHS1      constraint1_1420  1
    RHS1      constraint1_4380  1
    RHS1      constraint1_310  1
    RHS1      constraint1_6640  1
    RHS1      constraint1_3130  1
    RHS1      constraint1_1470  1
    RHS1      constraint2_1890  1
    RHS1      constraint2_1891  1
    RHS1      constraint2_1892  1
    RHS1      constraint2_1893  1
    RHS1      constraint2_3580  1
    RHS1      constraint2_3581  1
    RHS1      constraint2_3582  1
    RHS1      constraint2_3583  1
    RHS1      constraint2_1420  1
    RHS1      constraint2_1421  1
    RHS1      constraint2_1422  1
    RHS1      constraint2_1423  1
    RHS1      constraint2_4380  1
    RHS1      constraint2_4381  1
    RHS1      constraint2_4382  1
    RHS1      constraint2_4383  1
    RHS1      constraint2_310  1
    RHS1      constraint2_311  1
    RHS1      constraint2_312  1
    RHS1      constraint2_313  1
    RHS1      constraint2_6640  1
    RHS1      constraint2_6641  1
    RHS1      constraint2_6642  1
    RHS1      constraint2_6643  1
    RHS1      constraint2_3130  1
    RHS1      constraint2_3131  1
    RHS1      constraint2_3132  1
    RHS1      constraint2_3133  1
    RHS1      constraint2_1470  1
    RHS1      constraint2_1471  1
    RHS1      constraint2_1472  1
    RHS1      constraint2_1473  1
BOUNDS
 UP BND1      Z_189_0_0  1
 UP BND1      Z_189_0_1  1
 UP BND1      Z_189_0_2  1
 UP BND1      Z_189_0_3  1
 UP BND1      Z_358_0_0  1
 UP BND1      Z_358_0_1  1
 UP BND1      Z_358_0_2  1
 UP BND1      Z_358_0_3  1
 UP BND1      Z_142_0_0  1
 UP BND1      Z_142_0_1  1
 UP BND1      Z_142_0_2  1
 UP BND1      Z_142_0_3  1
 UP BND1      Z_438_0_0  1
 UP BND1      Z_438_0_1  1
 UP BND1      Z_438_0_2  1
 UP BND1      Z_438_0_3  1
 UP BND1      Z_31_0_0  1
 UP BND1      Z_31_0_1  1
 UP BND1      Z_31_0_2  1
 UP BND1      Z_31_0_3  1
 UP BND1      Z_664_0_0  1
 UP BND1      Z_664_0_1  1
 UP BND1      Z_664_0_2  1
 UP BND1      Z_664_0_3  1
 UP BND1      Z_313_0_0  1
 UP BND1      Z_313_0_1  1
 UP BND1      Z_313_0_2  1
 UP BND1      Z_313_0_3  1
 UP BND1      Z_147_0_0  1
 UP BND1      Z_147_0_1  1
 UP BND1      Z_147_0_2  1
 UP BND1      Z_147_0_3  1
QUADOBJ
    Z_189_0_0  Z_438_0_0  -3.9933837429111515e-03
    Z_189_0_0  Z_664_0_0  -1.9999999999999996e-01
    Z_189_0_1  Z_438_0_1  -3.9933837429111515e-03
    Z_189_0_1  Z_664_0_1  -1.9999999999999996e-01
    Z_189_0_2  Z_438_0_2  -3.9933837429111515e-03
    Z_189_0_2  Z_664_0_2  -1.9999999999999996e-01
    Z_189_0_3  Z_438_0_3  -3.9933837429111515e-03
    Z_189_0_3  Z_664_0_3  -1.9999999999999996e-01
    Z_142_0_0  Z_313_0_0  -2.1499596882558451e-04
    Z_142_0_0  Z_147_0_0  -3.3384745841929902e-07
    Z_142_0_1  Z_313_0_1  -2.1499596882558451e-04
    Z_142_0_1  Z_147_0_1  -3.3384745841929902e-07
    Z_142_0_2  Z_313_0_2  -2.1499596882558451e-04
    Z_142_0_2  Z_147_0_2  -3.3384745841929902e-07
    Z_142_0_3  Z_313_0_3  -2.1499596882558451e-04
    Z_142_0_3  Z_147_0_3  -3.3384745841929902e-07
    Z_438_0_0  Z_664_0_0  -3.9933837429111515e-03
    Z_438_0_1  Z_664_0_1  -3.9933837429111515e-03
    Z_438_0_2  Z_664_0_2  -3.9933837429111515e-03
    Z_438_0_3  Z_664_0_3  -3.9933837429111515e-03
ENDATA
