ilp_joint/output/grafting_ilp.sol
# Solution for model grafting_srl_ilp
# Objective value = 2.2053015749050995e+00
Z_358_0_0 0
Z_358_0_1 0
Z_358_0_2 1
Z_358_0_3 0
Z_358_0_4 0
Z_142_0_0 0
Z_142_0_1 0
Z_142_0_2 1
Z_142_0_3 0
Z_142_0_4 0
Z_147_0_0 0
Z_147_0_1 0
Z_147_0_2 1
Z_147_0_3 0
Z_147_0_4 0
